p edge 60 643
e 1 3
e 1 6
e 1 14
e 1 16
e 1 18
e 1 22
e 1 24
e 1 25
e 1 26
e 1 27
e 1 28
e 1 29
e 1 32
e 1 37
e 1 41
e 1 48
e 1 50
e 1 52
e 1 53
e 1 59
e 1 60
e 2 6
e 2 8
e 2 11
e 2 12
e 2 14
e 2 15
e 2 18
e 2 22
e 2 24
e 2 26
e 2 27
e 2 28
e 2 42
e 2 44
e 2 46
e 2 49
e 2 50
e 2 51
e 2 52
e 2 53
e 2 54
e 2 56
e 2 58
e 3 4
e 3 9
e 3 10
e 3 12
e 3 14
e 3 15
e 3 22
e 3 23
e 3 26
e 3 27
e 3 31
e 3 32
e 3 33
e 3 34
e 3 36
e 3 39
e 3 45
e 3 46
e 3 50
e 3 52
e 3 55
e 3 58
e 3 59
e 3 60
e 4 7
e 4 8
e 4 13
e 4 17
e 4 20
e 4 25
e 4 27
e 4 34
e 4 36
e 4 37
e 4 44
e 4 47
e 4 52
e 4 56
e 5 7
e 5 8
e 5 10
e 5 12
e 5 14
e 5 15
e 5 18
e 5 20
e 5 24
e 5 26
e 5 29
e 5 30
e 5 31
e 5 34
e 5 35
e 5 37
e 5 40
e 5 41
e 5 44
e 5 45
e 5 46
e 5 50
e 5 52
e 5 54
e 5 56
e 5 57
e 5 59
e 6 7
e 6 9
e 6 11
e 6 14
e 6 16
e 6 21
e 6 23
e 6 24
e 6 26
e 6 27
e 6 28
e 6 29
e 6 31
e 6 35
e 6 36
e 6 43
e 6 45
e 6 49
e 6 50
e 7 9
e 7 13
e 7 14
e 7 17
e 7 22
e 7 26
e 7 27
e 7 29
e 7 32
e 7 33
e 7 34
e 7 36
e 7 39
e 7 48
e 7 53
e 7 54
e 7 58
e 7 59
e 8 12
e 8 13
e 8 17
e 8 20
e 8 23
e 8 24
e 8 26
e 8 27
e 8 36
e 8 38
e 8 40
e 8 42
e 8 43
e 8 45
e 8 46
e 8 47
e 8 49
e 8 51
e 8 53
e 8 55
e 8 56
e 8 57
e 9 10
e 9 14
e 9 17
e 9 22
e 9 23
e 9 25
e 9 28
e 9 30
e 9 32
e 9 34
e 9 35
e 9 40
e 9 45
e 9 47
e 9 51
e 10 12
e 10 13
e 10 14
e 10 24
e 10 28
e 10 31
e 10 32
e 10 36
e 10 37
e 10 38
e 10 39
e 10 41
e 10 42
e 10 46
e 10 47
e 10 52
e 10 53
e 10 55
e 10 58
e 10 59
e 11 12
e 11 14
e 11 20
e 11 23
e 11 24
e 11 25
e 11 26
e 11 27
e 11 30
e 11 32
e 11 33
e 11 35
e 11 36
e 11 37
e 11 39
e 11 42
e 11 43
e 11 46
e 11 49
e 11 51
e 11 52
e 11 57
e 11 58
e 11 59
e 12 13
e 12 16
e 12 19
e 12 24
e 12 30
e 12 34
e 12 35
e 12 36
e 12 40
e 12 44
e 12 46
e 12 48
e 12 50
e 12 52
e 12 56
e 12 57
e 12 58
e 12 60
e 13 15
e 13 20
e 13 24
e 13 28
e 13 31
e 13 42
e 13 43
e 13 46
e 13 47
e 13 48
e 13 51
e 13 55
e 13 56
e 13 60
e 14 18
e 14 20
e 14 29
e 14 31
e 14 34
e 14 35
e 14 40
e 14 42
e 14 44
e 14 47
e 14 49
e 14 50
e 14 51
e 14 52
e 14 53
e 14 57
e 14 58
e 14 60
e 15 16
e 15 18
e 15 21
e 15 23
e 15 26
e 15 30
e 15 31
e 15 37
e 15 42
e 15 44
e 15 46
e 15 52
e 15 56
e 15 58
e 16 18
e 16 27
e 16 29
e 16 30
e 16 31
e 16 39
e 16 42
e 16 46
e 16 47
e 16 48
e 16 50
e 16 51
e 16 54
e 16 57
e 16 59
e 17 19
e 17 21
e 17 22
e 17 28
e 17 31
e 17 33
e 17 35
e 17 36
e 17 38
e 17 39
e 17 40
e 17 41
e 17 45
e 17 46
e 17 48
e 17 49
e 17 57
e 18 20
e 18 28
e 18 29
e 18 30
e 18 32
e 18 33
e 18 41
e 18 42
e 18 45
e 18 48
e 18 50
e 18 51
e 18 53
e 18 54
e 18 56
e 18 59
e 19 24
e 19 25
e 19 32
e 19 33
e 19 39
e 19 40
e 19 41
e 19 43
e 19 44
e 19 45
e 19 46
e 19 49
e 19 51
e 19 52
e 19 56
e 19 58
e 19 60
e 20 30
e 20 32
e 20 36
e 20 38
e 20 39
e 20 40
e 20 41
e 20 48
e 20 49
e 20 51
e 20 52
e 20 54
e 20 56
e 20 57
e 21 22
e 21 26
e 21 28
e 21 30
e 21 31
e 21 32
e 21 34
e 21 36
e 21 37
e 21 42
e 21 46
e 21 53
e 21 56
e 22 23
e 22 30
e 22 33
e 22 35
e 22 36
e 22 38
e 22 40
e 22 41
e 22 49
e 23 24
e 23 27
e 23 29
e 23 32
e 23 33
e 23 38
e 23 39
e 23 46
e 23 57
e 24 26
e 24 28
e 24 30
e 24 32
e 24 34
e 24 39
e 24 43
e 24 46
e 24 54
e 24 57
e 24 60
e 25 28
e 25 30
e 25 33
e 25 36
e 25 45
e 25 50
e 25 53
e 25 55
e 25 58
e 25 59
e 25 60
e 26 37
e 26 38
e 26 39
e 26 40
e 26 43
e 26 45
e 26 46
e 26 49
e 26 51
e 26 54
e 26 59
e 26 60
e 27 29
e 27 34
e 27 36
e 27 37
e 27 39
e 27 40
e 27 41
e 27 47
e 27 49
e 27 52
e 27 54
e 27 55
e 27 57
e 27 58
e 27 60
e 28 30
e 28 34
e 28 37
e 28 38
e 28 43
e 28 46
e 28 47
e 28 48
e 28 52
e 28 55
e 28 56
e 28 57
e 29 34
e 29 36
e 29 37
e 29 38
e 29 39
e 29 41
e 29 42
e 29 47
e 29 48
e 29 50
e 29 51
e 29 56
e 29 57
e 29 58
e 29 59
e 30 32
e 30 34
e 30 45
e 30 46
e 30 48
e 30 54
e 30 56
e 30 57
e 31 32
e 31 33
e 31 34
e 31 36
e 31 39
e 31 42
e 31 50
e 31 54
e 31 57
e 31 58
e 32 35
e 32 38
e 32 41
e 32 44
e 32 51
e 32 52
e 32 53
e 32 55
e 32 56
e 32 58
e 32 59
e 33 34
e 33 36
e 33 39
e 33 43
e 33 45
e 33 51
e 33 52
e 33 55
e 33 56
e 34 35
e 34 37
e 34 38
e 34 43
e 34 45
e 34 46
e 34 48
e 34 49
e 34 51
e 34 53
e 34 57
e 34 58
e 35 36
e 35 37
e 35 40
e 35 41
e 35 43
e 35 53
e 35 56
e 35 57
e 35 59
e 35 60
e 36 37
e 36 39
e 36 41
e 36 43
e 36 45
e 36 47
e 36 51
e 36 55
e 36 57
e 37 39
e 37 41
e 37 50
e 37 53
e 38 40
e 38 43
e 38 46
e 38 47
e 38 48
e 38 52
e 38 54
e 38 57
e 38 59
e 39 42
e 39 46
e 39 47
e 39 48
e 39 49
e 39 52
e 39 57
e 39 58
e 39 59
e 40 42
e 40 43
e 40 44
e 40 46
e 40 51
e 40 52
e 40 53
e 40 56
e 40 58
e 41 42
e 41 44
e 41 48
e 41 50
e 41 51
e 41 54
e 42 46
e 42 47
e 42 49
e 42 52
e 42 54
e 42 57
e 43 44
e 43 47
e 43 51
e 43 55
e 43 56
e 43 57
e 43 58
e 43 59
e 44 46
e 44 52
e 44 59
e 45 48
e 45 49
e 46 50
e 46 52
e 46 54
e 46 55
e 46 57
e 47 48
e 47 49
e 47 50
e 47 51
e 47 52
e 47 57
e 48 50
e 48 54
e 49 53
e 49 54
e 49 55
e 49 57
e 49 59
e 50 51
e 50 52
e 50 54
e 50 55
e 50 57
e 50 59
e 51 54
e 51 57
e 52 54
e 52 55
e 52 56
e 53 56
e 53 58
e 53 60
e 54 56
e 54 57
e 55 56
e 55 59
e 56 57
e 56 58
e 57 59
e 58 60
e 59 60
